
<<< setup

Version identifier: 22.1.1.0 | 2022-11-27 | 9160aff4d
Tried aggregator 1 time.
LP Presolve eliminated 119 rows and 91 columns.
Reduced LP has 2 rows, 14 columns, and 14 nonzeros.
Presolve time = 0.00 sec. (0.05 ticks)

Iteration log . . .
Iteration:     1   Dual objective     =          1865.719519
main returns 0

<<< main


<<< done

